Sr1 Ti1 O3
1.0
        3.9049999714         0.0000000000         0.0000000000
        0.0000000000         3.9049999714         0.0000000000
        0.0000000000         0.0000000000         3.9049999714
   Sr   Ti    O
    1    1    3
Direct
     0.000000000         0.000000000         0.000000000
     0.500000000         0.500000000         0.500000000
     0.000000000         0.500000000         0.500000000
     0.500000000         0.000000000         0.500000000
     0.500000000         0.500000000         0.000000000
